nNurses = 65;
nHours = 31;
minHours = 10;
maxHours = 14;
maxConsec = 12;
maxPresence = 26;
demand = [14, 17, 22, 27, 27, 25, 28, 30, 26, 21, 21, 19, 15, 14, 12, 13, 8, 8, 11, 6, 10, 8, 10, 13, 16, 21, 20, 18, 15, 17, 12];
